c WARNING: for repeatability, setting FPU to use double precision
d VARIABLES            139150       
d CONSTRAINTS          505760       
c ============================[ Problem Statistics ]=============================
c |                                                                             |
c |  Number of variables:        139150                                         |
c |  Number of clauses:          505760                                         |
c |  Parse time:                   0.08 s                                       |
c |                                                                             |
c ============================[ Search Statistics ]==============================
c | Conflicts |          ORIGINAL         |          LEARNT          | Progress |
c |           |    Vars  Clauses Literals |    Limit  Clauses Lit/Cl |          |
c ===============================================================================
c |       100 |  108975   427538  1074157 |   156763      100     44 | 21.685 % |
c |       250 |  108975   427538  1074157 |   172440      250     29 | 21.685 % |
c |       475 |  108975   427538  1074157 |   189684      475     23 | 21.685 % |
c |       812 |  108975   427538  1074157 |   208652      812     28 | 21.685 % |
c |      1318 |  108975   427538  1074157 |   229518     1318     75 | 21.685 % |
c |      2077 |  108975   427538  1074157 |   252469     2077     68 | 21.685 % |
c |      3216 |  108975   427538  1074157 |   277716     3216    100 | 21.685 % |
c |      4924 |  108975   427538  1074157 |   305488     4924     95 | 21.685 % |
c |      7486 |  108975   427538  1074157 |   336037     7486    129 | 21.685 % |
c |     11330 |  108975   427538  1074157 |   369641    11330    133 | 21.685 % |
c |     17096 |  108975   427538  1074157 |   406605    17096    125 | 21.685 % |
c |     25745 |  108975   427538  1074157 |   447265    25745    120 | 21.685 % |
c |     38719 |  108975   427538  1074157 |   491992    38719    137 | 21.685 % |
c |     58180 |  108975   427538  1074157 |   541191    58180    145 | 21.685 % |
c |     87372 |  108975   427538  1074157 |   595310    87372    149 | 21.685 % |
c |    131161 |  108975   427538  1074157 |   654841   131161    159 | 21.685 % |
c |    196845 |  108975   427538  1074157 |   720326   196845    153 | 21.685 % |
c |    295371 |  108975   427538  1074157 |   792358   295371    155 | 21.685 % |
c |    443160 |  108975   427538  1074157 |   871594   443160    158 | 21.685 % |
c |    664843 |  108975   427538  1074157 |   958753   664843    158 | 21.685 % |
c |    997368 |  108975   427538  1074157 |  1054629   997368    157 | 21.685 % |
c |   1496156 |  108975   427538  1074157 |  1160092   419769    163 | 21.685 % |
c |   2244338 |  108975   427538  1074157 |  1276101  1167951    182 | 21.685 % |
c ===============================================================================
c restarts              : 4095
c conflicts             : 2312879        (1290 /sec)
c decisions             : 5150765        (0.00 % random) (2873 /sec)
c propagations          : 3404815305     (1898881 /sec)
c conflict literals     : 398169847      (42.12 % deleted)
d RESTARTS             4095
d FAILURES             2312879      
d NODES                5150765      
d BACKTRACKS           5150765      
d PROPAGATIONS         3404815305   
d NOGOODSIZE           172.15 
d MEMORY               1037.00 
d TIME                 1793.06 

s UNKNOWN
